p td 20 37
2 1
5 3
6 1
7 4
8 2
9 6
9 4
10 7
10 1
12 10
12 1
12 8
12 9
13 10
13 6
14 2
15 3
15 12
15 1
16 8
16 10
16 12
16 11
17 9
17 16
17 13
18 2
19 9
19 4
19 17
20 6
20 5
20 11
20 16
20 1
20 9
20 8
